100
1000
240
239
238
235
232
231
231
231
231
230
229
228
228
228
227
226
222
219
218
217
217
217
217
217
216
216
214
214
213
212
212
211
210
209
208
208
208
206
206
206
206
205
205
204
204
203
200
199
199
199
198
198
197
197
196
195
193
193
193
193
191
191
188
188
188
187
186
186
183
183
182
181
179
178
177
177
177
177
176
176
176
175
175
175
172
172
171
170
170
169
168
168
167
167
166
166
164
163
163
162
